language ESSENCE' 1.0

letting capacity_FunctionAsRelation_RelationAsSet_Explicit_1 be [1, 2, 3, 4, 5; int(1..5)]
letting capacity_FunctionAsRelation_RelationAsSet_Explicit_2 be [3, 9, 8, 14, 5; int(1..5)]
letting buckets be 5
letting HORIZON be 30
letting initialState_FunctionAsRelation_RelationAsSet_Explicit_1 be [1, 2, 3, 4, 5; int(1..5)]
letting initialState_FunctionAsRelation_RelationAsSet_Explicit_2 be [0, 3, 0, 14, 0; int(1..5)]
letting finalState_FunctionAsRelation_RelationAsSet_Explicit_1 be [1, 2, 3, 4, 5; int(1..5)]
letting finalState_FunctionAsRelation_RelationAsSet_Explicit_2 be [1, 6, 6, 4, 0; int(1..5)]
letting fin1 be 5
letting fin2 be 1
letting fin3 be 5
letting fin4 be 0
letting fin5 be 14
letting fin6 be 5
letting fin7 be 1
letting fin8 be 5
letting fin9 be 0
letting fin10 be 6
letting fin11 be 5
letting fin12 be 1
letting fin13 be 5
letting fin14 be 3
letting fin15 be 14
